p cnf 6 131
-1 -2 0
-2 -3 0
-2 -4 0
-2 -5 0
-2 -6 0
-4 -5 0
-5 -6 0
-7 -13 0
-7 -19 0
-7 -25 0
-13 -19 0
-13 -25 0
-19 -25 0
-8 -14 0
-8 -20 0
-8 -26 0
-14 -20 0
-14 -26 0
-20 -26 0
-9 -15 0
-9 -21 0
-9 -27 0
-15 -21 0
-15 -27 0
-21 -27 0
-10 -16 0
-10 -22 0
-10 -28 0
-16 -22 0
-16 -28 0
-22 -28 0
-11 -17 0
-11 -23 0
-11 -29 0
-17 -23 0
-17 -29 0
-23 -29 0
-12 -18 0
-12 -24 0
-12 -30 0
-18 -24 0
-18 -30 0
-24 -30 0
-7 -8 0
-7 -9 0
-7 -10 0
-7 -11 0
-7 -12 0
-8 -9 0
-8 -10 0
-8 -11 0
-8 -12 0
-9 -10 0
-9 -11 0
-9 -12 0
-10 -11 0
-10 -12 0
-11 -12 0
-13 -14 0
-13 -15 0
-13 -16 0
-13 -17 0
-13 -18 0
-14 -15 0
-14 -16 0
-14 -17 0
-14 -18 0
-15 -16 0
-15 -17 0
-15 -18 0
-16 -17 0
-16 -18 0
-17 -18 0
-19 -20 0
-19 -21 0
-19 -22 0
-19 -23 0
-19 -24 0
-20 -21 0
-20 -22 0
-20 -23 0
-20 -24 0
-21 -22 0
-21 -23 0
-21 -24 0
-22 -23 0
-22 -24 0
-23 -24 0
-25 -26 0
-25 -27 0
-25 -28 0
-25 -29 0
-25 -30 0
-26 -27 0
-26 -28 0
-26 -29 0
-26 -30 0
-27 -28 0
-27 -29 0
-27 -30 0
-28 -29 0
-28 -30 0
-29 -30 0
7 8 9 10 11 12 0
13 14 15 16 17 18 0
19 20 21 22 23 24 0
25 26 27 28 29 30 0
-7 1 0
-8 2 0
-9 3 0
-10 4 0
-11 5 0
-12 6 0
-13 1 0
-14 2 0
-15 3 0
-16 4 0
-17 5 0
-18 6 0
-19 1 0
-20 2 0
-21 3 0
-22 4 0
-23 5 0
-24 6 0
-25 1 0
-26 2 0
-27 3 0
-28 4 0
-29 5 0
-30 6 0
